instances/knapsack/discrete/knapsack_100_4.kp
10011
100
487

66 6.6 59
91 9.1 19
25 2.5 81
34 3.4 73
83 8.3 26
88 8.8 26
8 0.8 74
58 5.8 68
40 4.0 75
13 1.3 71
62 6.2 12
94 9.4 52
87 8.7 96
99 9.9 63
99 9.9 24
11 1.1 1
68 6.8 11
27 2.7 15
84 8.4 15
37 3.7 98
72 7.2 98
22 2.2 64
31 3.1 93
21 2.1 17
75 7.5 6
99 9.9 23
93 9.3 85
62 6.2 92
48 4.8 43
14 1.4 93
32 3.2 26
34 3.4 77
58 5.8 97
88 8.8 16
55 5.5 92
12 1.2 78
83 8.3 18
3 0.3 8
31 3.1 35
9 0.9 24
14 1.4 85
20 2.0 78
41 4.1 22
92 9.2 96
62 6.2 83
61 6.1 4
72 7.2 73
80 8.0 81
82 8.2 33
15 1.5 26
65 6.5 88
51 5.1 27
8 0.8 84
23 2.3 50
11 1.1 13
58 5.8 83
24 2.4 7
21 2.1 13
47 4.7 65
49 4.9 28
55 5.5 61
73 7.3 39
42 4.2 66
69 6.9 18
46 4.6 67
43 4.3 98
23 2.3 54
97 9.7 26
71 7.1 81
96 9.6 38
8 0.8 22
76 7.6 60
89 8.9 38
62 6.2 62
38 3.8 31
87 8.7 39
33 3.3 47
90 9.0 66
7 0.7 41
77 7.7 84
20 2.0 72
88 8.8 19
37 3.7 34
32 3.2 63
60 6.0 42
56 5.6 81
90 9.0 63
39 3.9 36
17 1.7 97
34 3.4 87
19 1.9 55
91 9.1 86
15 1.5 42
42 4.2 97
35 3.5 85
36 3.6 63
8 0.8 42
27 2.7 13
91 9.1 73
87 8.7 25

52428
470

[2.87 2.46 1.62 2.61 3.54 0.32 4.24 3.43 2.2 0.08 2.34 2.36 1.11 2.13 0.24 4.41 0.46 2.18 3.97 1.17 2.84 0.3 4.15 3.33 0.65 3.25 1.41 2.28 4.4 1.75 2.4 4.42 3.49 2.3 3.39 3.05 0.28 4.01 3.45 2.35 3.68 0.66 0.86 0.6 1.05 1.39 0.37 3.31 0.95 1.21 2.46 0.34 3.7 2.15 0.54 3.45 1.82 0.86 2.06 1.73 4.68 0.27 4.13 2.31 2.98 2.14 2.58 1.2 2.36 4.4 3.83 4.13 1.47 0.03 4.19 2.7 3.85 2.53 1.59 0.45 1.95 2.04 1.73 3.85 2.75 3.09 3.58 1.16 0.17 1.39 0.29 0.25 2.13 4.52 1.07 0.66 1.43 3.26 0.04 0.44]

[81 1 15 20 57 83 90 65 78 95 45 64 97 9 34 86 18 37 30 3 14 29 53 92 2 5 59 37 79 68 79 37 65 34 13 78 53 26 17 8 100 91 23 55 12 64 43 59 88 57 36 61 10 57 38 13 2 12 81 15 22 24 5 16 93 25 30 72 13 15 75 99 71 100 85 6 28 92 86 100 75 47 64 99 7 99 45 57 15 4 90 2 70 37 93 46 30 70 65 97]
