instances/knapsack/discrete/knapsack_100_4.lp
\ Model knapsack_100_4
\ LP format - for model browsing. Use MPS format to capture full model detail.
\ Signature: 0x98b4e0718ea0846a
Minimize
  - 48 x[0] - 48 x[1] - 70 x[2] - 42 x[3] - 19 x[4] - 11 x[5] - 83 x[6]
   - 49 x[7] - 52 x[8] - 92 x[9] - 65 x[10] - 57 x[11] - 33 x[12]
   - 80 x[13] - 29 x[14] - 98 x[15] - 8 x[16] - 80 x[17] - 100 x[18]
   - 67 x[19] - 11 x[20] - 13 x[21] - 66 x[22] - 46 x[23] - 11 x[24]
   - 80 x[25] - 78 x[26] - 33 x[27] - 100 x[28] - 90 x[29] - 71 x[30]
   - 58 x[31] - 46 x[32] - 13 x[33] - 81 x[34] - 63 x[35] - 47 x[36]
   - 17 x[37] - 56 x[38] - 85 x[39] - 30 x[40] - 55 x[41] - 51 x[42]
   - 25 x[43] - 4 x[44] - 25 x[45] - 38 x[46] - 70 x[47] - 42 x[48]
   - 91 x[49] - 97 x[50] - 48 x[51] - 21 x[52] - 91 x[53] - 50 x[54]
   - 64 x[55] - 88 x[56] - 50 x[57] - 82 x[58] - 93 x[59] - 18 x[60]
   - 36 x[61] - 67 x[62] - 75 x[63] - 32 x[64] - 59 x[65] - 47 x[66]
   - 95 x[67] - 2 x[68] - 15 x[69] - 19 x[70] - 97 x[71] - 35 x[72]
   - 99 x[73] - 80 x[74] - 20 x[75] - 12 x[76] - 3 x[77] - 78 x[78]
   - 41 x[79] - 61 x[80] - 64 x[81] - 91 x[82] - 28 x[83] - 11 x[84]
   - 14 x[85] - 96 x[86] - 65 x[87] - 22 x[88] - 36 x[89] - 72 x[90]
   - 11 x[91] - 91 x[92] - 6 x[93] - 42 x[94] - 92 x[95] - 19 x[96]
   - 38 x[97] - 86 x[98] - 86 x[99]
Subject To
 primal_upper: 83 x[0] + 8 x[1] + 10 x[2] + 27 x[3] + 24 x[4] + 37 x[5]
   + 13 x[6] + 31 x[7] + 57 x[8] + 54 x[9] + 67 x[10] + 11 x[11] + 56 x[12]
   + 56 x[13] + 72 x[14] + 40 x[15] + 89 x[16] + 20 x[17] + 45 x[18]
   + 46 x[19] + 37 x[20] + 47 x[21] + 16 x[22] + 94 x[23] + 40 x[24]
   + 92 x[25] + 46 x[26] + 67 x[27] + 53 x[28] + 23 x[29] + x[30]
   + 11 x[31] + 43 x[32] + 41 x[33] + 68 x[34] + x[35] + 12 x[36]
   + 84 x[37] + 28 x[38] + 14 x[39] + 39 x[40] + 13 x[41] + 74 x[42]
   + 93 x[43] + 63 x[44] + 50 x[45] + 5 x[46] + 17 x[47] + 11 x[48]
   + 64 x[49] + 98 x[50] + 40 x[51] + 13 x[52] + 88 x[53] + 4 x[54]
   + 55 x[55] + 69 x[56] + 30 x[57] + 24 x[58] + 26 x[59] + 100 x[60]
   + 82 x[61] + 59 x[62] + 6 x[63] + 11 x[64] + 88 x[65] + 44 x[66]
   + 34 x[67] + 12 x[68] + 69 x[69] + 21 x[70] + 61 x[71] + 58 x[72]
   + 27 x[73] + 99 x[74] + 76 x[75] + 26 x[76] + 63 x[77] + 88 x[78]
   + 86 x[79] + 65 x[80] + 9 x[81] + 90 x[82] + 9 x[83] + 97 x[84]
   + 9 x[85] + 7 x[86] + 92 x[87] + 74 x[88] + 95 x[89] + 100 x[90]
   + 72 x[91] + 24 x[92] + 71 x[93] + 60 x[94] + 13 x[95] + 85 x[96]
   + 16 x[97] + 100 x[98] + 8 x[99] + 8.3 r[0] + 0.8 r[1] + r[2] + 2.7 r[3]
   + 2.4 r[4] + 3.7 r[5] + 1.3 r[6] + 3.1 r[7] + 5.7 r[8] + 5.4 r[9]
   + 6.7 r[10] + 1.1 r[11] + 5.6 r[12] + 5.6 r[13] + 7.2 r[14] + 4 r[15]
   + 8.9 r[16] + 2 r[17] + 4.5 r[18] + 4.6 r[19] + 3.7 r[20] + 4.7 r[21]
   + 1.6 r[22] + 9.4 r[23] + 4 r[24] + 9.2 r[25] + 4.6 r[26] + 6.7 r[27]
   + 5.3 r[28] + 2.3 r[29] + 0.1 r[30] + 1.1 r[31] + 4.3 r[32] + 4.1 r[33]
   + 6.8 r[34] + 0.1 r[35] + 1.2 r[36] + 8.4 r[37] + 2.8 r[38] + 1.4 r[39]
   + 3.9 r[40] + 1.3 r[41] + 7.4 r[42] + 9.3 r[43] + 6.3 r[44] + 5 r[45]
   + 0.5 r[46] + 1.7 r[47] + 1.1 r[48] + 6.4 r[49] + 9.8 r[50] + 4 r[51]
   + 1.3 r[52] + 8.8 r[53] + 0.4 r[54] + 5.5 r[55] + 6.9 r[56] + 3 r[57]
   + 2.4 r[58] + 2.6 r[59] + 10 r[60] + 8.2 r[61] + 5.9 r[62] + 0.6 r[63]
   + 1.1 r[64] + 8.8 r[65] + 4.4 r[66] + 3.4 r[67] + 1.2 r[68] + 6.9 r[69]
   + 2.1 r[70] + 6.1 r[71] + 5.8 r[72] + 2.7 r[73] + 9.9 r[74] + 7.6 r[75]
   + 2.6 r[76] + 6.3 r[77] + 8.8 r[78] + 8.6 r[79] + 6.5 r[80] + 0.9 r[81]
   + 9 r[82] + 0.9 r[83] + 9.7 r[84] + 0.9 r[85] + 0.7 r[86] + 9.2 r[87]
   + 7.4 r[88] + 9.5 r[89] + 10 r[90] + 7.2 r[91] + 2.4 r[92] + 7.1 r[93]
   + 6 r[94] + 1.3 r[95] + 8.5 r[96] + 1.6 r[97] + 10 r[98] + 0.8 r[99]
   <= 452
 primal_lower: 1.737831226597549 x[0] + 1.248716685178566 x[1]
   + 4.065834045861774 x[2] + 1.858969526625841 x[3]
   + 3.206914804114379 x[4] + 2.358617935310181 x[5]
   + 2.33608196323415 x[6] + 1.70870906126745 x[7] + 2.014326569891207 x[8]
   + 1.000583541415135 x[9] + 2.952437355857459 x[10]
   + 3.647920503919255 x[11] + 2.211892491195011 x[12]
   + 3.173880463024046 x[13] + 0.154286631787538 x[14]
   + 1.326668851306668 x[15] + 3.726074502633467 x[16]
   + 3.911392132513287 x[17] + 0.2103139773652339 x[18]
   + 1.741197252272193 x[19] + 4.154109645587656 x[20]
   + 0.816853548925174 x[21] + 1.112612572258591 x[22]
   + 2.485277637810987 x[23] + 0.0933070441418923 x[24]
   + 1.522543734404974 x[25] + 2.24425253536682 x[26]
   + 3.976793606229034 x[27] + 2.196637696300843 x[28]
   + 0.5903632464936217 x[29] + 4.181310222132533 x[30]
   + 2.756692204666293 x[31] + 0.9220357358188145 x[32]
   + 2.941981700901807 x[33] + 2.285431220547642 x[34]
   + 3.161656330475362 x[35] + 3.568455149464462 x[36]
   + 3.467531342372896 x[37] + 4.041906314484303 x[38]
   + 4.011006040430376 x[39] + 2.876085231734964 x[40]
   + 4.239813718518652 x[41] + 3.545683035659779 x[42]
   + 4.475206974479121 x[43] + 0.2973789874004937 x[44]
   + 1.747749745964726 x[45] + 0.1059413276210654 x[46]
   + 2.370574515409917 x[47] + 0.6202023744343895 x[48]
   + 3.12210312215068 x[49] + 3.078896933027575 x[50]
   + 2.090151983245304 x[51] + 1.577600029925101 x[52]
   + 0.4067019244819238 x[53] + 2.984239818105859 x[54]
   + 3.752720995174093 x[55] + 3.222394834013318 x[56]
   + 3.454000217351821 x[57] + 4.399559013737113 x[58]
   + 2.433898099115695 x[59] + 4.097494038191993 x[60]
   + 2.571791338542613 x[61] + 1.883109804018607 x[62]
   + 2.448680965366246 x[63] + 0.496997934278067 x[64]
   + 2.235732625055766 x[65] + 1.819939837502819 x[66]
   + 1.790180048678842 x[67] + 0.4879025192992283 x[68]
   + 0.6644408613314201 x[69] + 0.3430777108211464 x[70]
   + 0.3092125855903889 x[71] + 3.77505317145627 x[72]
   + 0.828302875681483 x[73] + 0.3171324548620821 x[74]
   + 2.969728669379974 x[75] + 4.223696873246857 x[76]
   + 3.8892942364948 x[77] + 1.936679949543426 x[78]
   + 0.506314460359842 x[79] + 2.784436172446875 x[80]
   + 0.5482986564243028 x[81] + 2.084628128643335 x[82]
   + 0.2412109704009794 x[83] + 4.048566425523579 x[84]
   + 3.878925089535806 x[85] + 1.435498713938974 x[86]
   + 2.958057718190604 x[87] + 0.8784366392858265 x[88]
   + 1.139391636754187 x[89] + 0.4730009666500757 x[90]
   + 3.993437806846435 x[91] + 2.530413480421033 x[92]
   + 0.0733785996145417 x[93] + 4.483032700565391 x[94]
   + 3.554129677609765 x[95] + 0.5364840516361915 x[96]
   + 2.39494076772815 x[97] + 3.020000165822657 x[98]
   + 1.081873743195002 x[99] + 67 u[0] + 64 u[1] + 2 u[2] + 19 u[3]
   + 44 u[4] + 81 u[5] + 37 u[6] + 31 u[7] + 37 u[8] + 94 u[9] + 19 u[10]
   + 23 u[11] + 20 u[12] + 72 u[13] + 32 u[14] + 24 u[15] + 37 u[16]
   + 52 u[17] + 21 u[18] + 94 u[19] + u[20] + 83 u[21] + 72 u[22]
   + 14 u[23] + 68 u[24] + 24 u[25] + 90 u[26] + 11 u[27] + 69 u[28]
   + 35 u[29] + 13 u[30] + 59 u[31] + 43 u[32] + 77 u[33] + 16 u[34]
   + 61 u[35] + 12 u[36] + 16 u[37] + 100 u[38] + 6 u[39] + 79 u[40]
   + 65 u[41] + 2 u[42] + 85 u[43] + 19 u[44] + 38 u[45] + 65 u[46]
   + 25 u[47] + 19 u[48] + 92 u[49] + 70 u[50] + 48 u[51] + 57 u[52]
   + 60 u[53] + 80 u[54] + 3 u[55] + 89 u[56] + 90 u[57] + 16 u[58]
   + 66 u[59] + 64 u[60] + 26 u[61] + 27 u[62] + 50 u[63] + 11 u[64]
   + 52 u[65] + 88 u[66] + 66 u[67] + 32 u[68] + 25 u[69] + u[70]
   + 81 u[71] + 42 u[72] + 79 u[73] + 7 u[74] + 8 u[75] + 82 u[76]
   + 99 u[77] + 68 u[78] + 62 u[79] + 93 u[80] + 81 u[81] + 74 u[82]
   + 61 u[83] + 41 u[84] + 93 u[85] + 11 u[86] + 100 u[87] + 98 u[88]
   + 11 u[89] + 52 u[90] + 44 u[91] + 28 u[92] + 15 u[93] + 20 u[94]
   + 9 u[95] + 25 u[96] + 88 u[97] + 4 u[98] + 16 u[99] <= 95157
 mccormick1[0]: - u[0] + r[0] <= 0
 mccormick1[1]: - u[1] + r[1] <= 0
 mccormick1[2]: - u[2] + r[2] <= 0
 mccormick1[3]: - u[3] + r[3] <= 0
 mccormick1[4]: - u[4] + r[4] <= 0
 mccormick1[5]: - u[5] + r[5] <= 0
 mccormick1[6]: - u[6] + r[6] <= 0
 mccormick1[7]: - u[7] + r[7] <= 0
 mccormick1[8]: - u[8] + r[8] <= 0
 mccormick1[9]: - u[9] + r[9] <= 0
 mccormick1[10]: - u[10] + r[10] <= 0
 mccormick1[11]: - u[11] + r[11] <= 0
 mccormick1[12]: - u[12] + r[12] <= 0
 mccormick1[13]: - u[13] + r[13] <= 0
 mccormick1[14]: - u[14] + r[14] <= 0
 mccormick1[15]: - u[15] + r[15] <= 0
 mccormick1[16]: - u[16] + r[16] <= 0
 mccormick1[17]: - u[17] + r[17] <= 0
 mccormick1[18]: - u[18] + r[18] <= 0
 mccormick1[19]: - u[19] + r[19] <= 0
 mccormick1[20]: - u[20] + r[20] <= 0
 mccormick1[21]: - u[21] + r[21] <= 0
 mccormick1[22]: - u[22] + r[22] <= 0
 mccormick1[23]: - u[23] + r[23] <= 0
 mccormick1[24]: - u[24] + r[24] <= 0
 mccormick1[25]: - u[25] + r[25] <= 0
 mccormick1[26]: - u[26] + r[26] <= 0
 mccormick1[27]: - u[27] + r[27] <= 0
 mccormick1[28]: - u[28] + r[28] <= 0
 mccormick1[29]: - u[29] + r[29] <= 0
 mccormick1[30]: - u[30] + r[30] <= 0
 mccormick1[31]: - u[31] + r[31] <= 0
 mccormick1[32]: - u[32] + r[32] <= 0
 mccormick1[33]: - u[33] + r[33] <= 0
 mccormick1[34]: - u[34] + r[34] <= 0
 mccormick1[35]: - u[35] + r[35] <= 0
 mccormick1[36]: - u[36] + r[36] <= 0
 mccormick1[37]: - u[37] + r[37] <= 0
 mccormick1[38]: - u[38] + r[38] <= 0
 mccormick1[39]: - u[39] + r[39] <= 0
 mccormick1[40]: - u[40] + r[40] <= 0
 mccormick1[41]: - u[41] + r[41] <= 0
 mccormick1[42]: - u[42] + r[42] <= 0
 mccormick1[43]: - u[43] + r[43] <= 0
 mccormick1[44]: - u[44] + r[44] <= 0
 mccormick1[45]: - u[45] + r[45] <= 0
 mccormick1[46]: - u[46] + r[46] <= 0
 mccormick1[47]: - u[47] + r[47] <= 0
 mccormick1[48]: - u[48] + r[48] <= 0
 mccormick1[49]: - u[49] + r[49] <= 0
 mccormick1[50]: - u[50] + r[50] <= 0
 mccormick1[51]: - u[51] + r[51] <= 0
 mccormick1[52]: - u[52] + r[52] <= 0
 mccormick1[53]: - u[53] + r[53] <= 0
 mccormick1[54]: - u[54] + r[54] <= 0
 mccormick1[55]: - u[55] + r[55] <= 0
 mccormick1[56]: - u[56] + r[56] <= 0
 mccormick1[57]: - u[57] + r[57] <= 0
 mccormick1[58]: - u[58] + r[58] <= 0
 mccormick1[59]: - u[59] + r[59] <= 0
 mccormick1[60]: - u[60] + r[60] <= 0
 mccormick1[61]: - u[61] + r[61] <= 0
 mccormick1[62]: - u[62] + r[62] <= 0
 mccormick1[63]: - u[63] + r[63] <= 0
 mccormick1[64]: - u[64] + r[64] <= 0
 mccormick1[65]: - u[65] + r[65] <= 0
 mccormick1[66]: - u[66] + r[66] <= 0
 mccormick1[67]: - u[67] + r[67] <= 0
 mccormick1[68]: - u[68] + r[68] <= 0
 mccormick1[69]: - u[69] + r[69] <= 0
 mccormick1[70]: - u[70] + r[70] <= 0
 mccormick1[71]: - u[71] + r[71] <= 0
 mccormick1[72]: - u[72] + r[72] <= 0
 mccormick1[73]: - u[73] + r[73] <= 0
 mccormick1[74]: - u[74] + r[74] <= 0
 mccormick1[75]: - u[75] + r[75] <= 0
 mccormick1[76]: - u[76] + r[76] <= 0
 mccormick1[77]: - u[77] + r[77] <= 0
 mccormick1[78]: - u[78] + r[78] <= 0
 mccormick1[79]: - u[79] + r[79] <= 0
 mccormick1[80]: - u[80] + r[80] <= 0
 mccormick1[81]: - u[81] + r[81] <= 0
 mccormick1[82]: - u[82] + r[82] <= 0
 mccormick1[83]: - u[83] + r[83] <= 0
 mccormick1[84]: - u[84] + r[84] <= 0
 mccormick1[85]: - u[85] + r[85] <= 0
 mccormick1[86]: - u[86] + r[86] <= 0
 mccormick1[87]: - u[87] + r[87] <= 0
 mccormick1[88]: - u[88] + r[88] <= 0
 mccormick1[89]: - u[89] + r[89] <= 0
 mccormick1[90]: - u[90] + r[90] <= 0
 mccormick1[91]: - u[91] + r[91] <= 0
 mccormick1[92]: - u[92] + r[92] <= 0
 mccormick1[93]: - u[93] + r[93] <= 0
 mccormick1[94]: - u[94] + r[94] <= 0
 mccormick1[95]: - u[95] + r[95] <= 0
 mccormick1[96]: - u[96] + r[96] <= 0
 mccormick1[97]: - u[97] + r[97] <= 0
 mccormick1[98]: - u[98] + r[98] <= 0
 mccormick1[99]: - u[99] + r[99] <= 0
 mccormick2[0]: - x[0] + r[0] <= 0
 mccormick2[1]: - x[1] + r[1] <= 0
 mccormick2[2]: - x[2] + r[2] <= 0
 mccormick2[3]: - x[3] + r[3] <= 0
 mccormick2[4]: - x[4] + r[4] <= 0
 mccormick2[5]: - x[5] + r[5] <= 0
 mccormick2[6]: - x[6] + r[6] <= 0
 mccormick2[7]: - x[7] + r[7] <= 0
 mccormick2[8]: - x[8] + r[8] <= 0
 mccormick2[9]: - x[9] + r[9] <= 0
 mccormick2[10]: - x[10] + r[10] <= 0
 mccormick2[11]: - x[11] + r[11] <= 0
 mccormick2[12]: - x[12] + r[12] <= 0
 mccormick2[13]: - x[13] + r[13] <= 0
 mccormick2[14]: - x[14] + r[14] <= 0
 mccormick2[15]: - x[15] + r[15] <= 0
 mccormick2[16]: - x[16] + r[16] <= 0
 mccormick2[17]: - x[17] + r[17] <= 0
 mccormick2[18]: - x[18] + r[18] <= 0
 mccormick2[19]: - x[19] + r[19] <= 0
 mccormick2[20]: - x[20] + r[20] <= 0
 mccormick2[21]: - x[21] + r[21] <= 0
 mccormick2[22]: - x[22] + r[22] <= 0
 mccormick2[23]: - x[23] + r[23] <= 0
 mccormick2[24]: - x[24] + r[24] <= 0
 mccormick2[25]: - x[25] + r[25] <= 0
 mccormick2[26]: - x[26] + r[26] <= 0
 mccormick2[27]: - x[27] + r[27] <= 0
 mccormick2[28]: - x[28] + r[28] <= 0
 mccormick2[29]: - x[29] + r[29] <= 0
 mccormick2[30]: - x[30] + r[30] <= 0
 mccormick2[31]: - x[31] + r[31] <= 0
 mccormick2[32]: - x[32] + r[32] <= 0
 mccormick2[33]: - x[33] + r[33] <= 0
 mccormick2[34]: - x[34] + r[34] <= 0
 mccormick2[35]: - x[35] + r[35] <= 0
 mccormick2[36]: - x[36] + r[36] <= 0
 mccormick2[37]: - x[37] + r[37] <= 0
 mccormick2[38]: - x[38] + r[38] <= 0
 mccormick2[39]: - x[39] + r[39] <= 0
 mccormick2[40]: - x[40] + r[40] <= 0
 mccormick2[41]: - x[41] + r[41] <= 0
 mccormick2[42]: - x[42] + r[42] <= 0
 mccormick2[43]: - x[43] + r[43] <= 0
 mccormick2[44]: - x[44] + r[44] <= 0
 mccormick2[45]: - x[45] + r[45] <= 0
 mccormick2[46]: - x[46] + r[46] <= 0
 mccormick2[47]: - x[47] + r[47] <= 0
 mccormick2[48]: - x[48] + r[48] <= 0
 mccormick2[49]: - x[49] + r[49] <= 0
 mccormick2[50]: - x[50] + r[50] <= 0
 mccormick2[51]: - x[51] + r[51] <= 0
 mccormick2[52]: - x[52] + r[52] <= 0
 mccormick2[53]: - x[53] + r[53] <= 0
 mccormick2[54]: - x[54] + r[54] <= 0
 mccormick2[55]: - x[55] + r[55] <= 0
 mccormick2[56]: - x[56] + r[56] <= 0
 mccormick2[57]: - x[57] + r[57] <= 0
 mccormick2[58]: - x[58] + r[58] <= 0
 mccormick2[59]: - x[59] + r[59] <= 0
 mccormick2[60]: - x[60] + r[60] <= 0
 mccormick2[61]: - x[61] + r[61] <= 0
 mccormick2[62]: - x[62] + r[62] <= 0
 mccormick2[63]: - x[63] + r[63] <= 0
 mccormick2[64]: - x[64] + r[64] <= 0
 mccormick2[65]: - x[65] + r[65] <= 0
 mccormick2[66]: - x[66] + r[66] <= 0
 mccormick2[67]: - x[67] + r[67] <= 0
 mccormick2[68]: - x[68] + r[68] <= 0
 mccormick2[69]: - x[69] + r[69] <= 0
 mccormick2[70]: - x[70] + r[70] <= 0
 mccormick2[71]: - x[71] + r[71] <= 0
 mccormick2[72]: - x[72] + r[72] <= 0
 mccormick2[73]: - x[73] + r[73] <= 0
 mccormick2[74]: - x[74] + r[74] <= 0
 mccormick2[75]: - x[75] + r[75] <= 0
 mccormick2[76]: - x[76] + r[76] <= 0
 mccormick2[77]: - x[77] + r[77] <= 0
 mccormick2[78]: - x[78] + r[78] <= 0
 mccormick2[79]: - x[79] + r[79] <= 0
 mccormick2[80]: - x[80] + r[80] <= 0
 mccormick2[81]: - x[81] + r[81] <= 0
 mccormick2[82]: - x[82] + r[82] <= 0
 mccormick2[83]: - x[83] + r[83] <= 0
 mccormick2[84]: - x[84] + r[84] <= 0
 mccormick2[85]: - x[85] + r[85] <= 0
 mccormick2[86]: - x[86] + r[86] <= 0
 mccormick2[87]: - x[87] + r[87] <= 0
 mccormick2[88]: - x[88] + r[88] <= 0
 mccormick2[89]: - x[89] + r[89] <= 0
 mccormick2[90]: - x[90] + r[90] <= 0
 mccormick2[91]: - x[91] + r[91] <= 0
 mccormick2[92]: - x[92] + r[92] <= 0
 mccormick2[93]: - x[93] + r[93] <= 0
 mccormick2[94]: - x[94] + r[94] <= 0
 mccormick2[95]: - x[95] + r[95] <= 0
 mccormick2[96]: - x[96] + r[96] <= 0
 mccormick2[97]: - x[97] + r[97] <= 0
 mccormick2[98]: - x[98] + r[98] <= 0
 mccormick2[99]: - x[99] + r[99] <= 0
 mccormick3[0]: x[0] + u[0] - r[0] <= 1
 mccormick3[1]: x[1] + u[1] - r[1] <= 1
 mccormick3[2]: x[2] + u[2] - r[2] <= 1
 mccormick3[3]: x[3] + u[3] - r[3] <= 1
 mccormick3[4]: x[4] + u[4] - r[4] <= 1
 mccormick3[5]: x[5] + u[5] - r[5] <= 1
 mccormick3[6]: x[6] + u[6] - r[6] <= 1
 mccormick3[7]: x[7] + u[7] - r[7] <= 1
 mccormick3[8]: x[8] + u[8] - r[8] <= 1
 mccormick3[9]: x[9] + u[9] - r[9] <= 1
 mccormick3[10]: x[10] + u[10] - r[10] <= 1
 mccormick3[11]: x[11] + u[11] - r[11] <= 1
 mccormick3[12]: x[12] + u[12] - r[12] <= 1
 mccormick3[13]: x[13] + u[13] - r[13] <= 1
 mccormick3[14]: x[14] + u[14] - r[14] <= 1
 mccormick3[15]: x[15] + u[15] - r[15] <= 1
 mccormick3[16]: x[16] + u[16] - r[16] <= 1
 mccormick3[17]: x[17] + u[17] - r[17] <= 1
 mccormick3[18]: x[18] + u[18] - r[18] <= 1
 mccormick3[19]: x[19] + u[19] - r[19] <= 1
 mccormick3[20]: x[20] + u[20] - r[20] <= 1
 mccormick3[21]: x[21] + u[21] - r[21] <= 1
 mccormick3[22]: x[22] + u[22] - r[22] <= 1
 mccormick3[23]: x[23] + u[23] - r[23] <= 1
 mccormick3[24]: x[24] + u[24] - r[24] <= 1
 mccormick3[25]: x[25] + u[25] - r[25] <= 1
 mccormick3[26]: x[26] + u[26] - r[26] <= 1
 mccormick3[27]: x[27] + u[27] - r[27] <= 1
 mccormick3[28]: x[28] + u[28] - r[28] <= 1
 mccormick3[29]: x[29] + u[29] - r[29] <= 1
 mccormick3[30]: x[30] + u[30] - r[30] <= 1
 mccormick3[31]: x[31] + u[31] - r[31] <= 1
 mccormick3[32]: x[32] + u[32] - r[32] <= 1
 mccormick3[33]: x[33] + u[33] - r[33] <= 1
 mccormick3[34]: x[34] + u[34] - r[34] <= 1
 mccormick3[35]: x[35] + u[35] - r[35] <= 1
 mccormick3[36]: x[36] + u[36] - r[36] <= 1
 mccormick3[37]: x[37] + u[37] - r[37] <= 1
 mccormick3[38]: x[38] + u[38] - r[38] <= 1
 mccormick3[39]: x[39] + u[39] - r[39] <= 1
 mccormick3[40]: x[40] + u[40] - r[40] <= 1
 mccormick3[41]: x[41] + u[41] - r[41] <= 1
 mccormick3[42]: x[42] + u[42] - r[42] <= 1
 mccormick3[43]: x[43] + u[43] - r[43] <= 1
 mccormick3[44]: x[44] + u[44] - r[44] <= 1
 mccormick3[45]: x[45] + u[45] - r[45] <= 1
 mccormick3[46]: x[46] + u[46] - r[46] <= 1
 mccormick3[47]: x[47] + u[47] - r[47] <= 1
 mccormick3[48]: x[48] + u[48] - r[48] <= 1
 mccormick3[49]: x[49] + u[49] - r[49] <= 1
 mccormick3[50]: x[50] + u[50] - r[50] <= 1
 mccormick3[51]: x[51] + u[51] - r[51] <= 1
 mccormick3[52]: x[52] + u[52] - r[52] <= 1
 mccormick3[53]: x[53] + u[53] - r[53] <= 1
 mccormick3[54]: x[54] + u[54] - r[54] <= 1
 mccormick3[55]: x[55] + u[55] - r[55] <= 1
 mccormick3[56]: x[56] + u[56] - r[56] <= 1
 mccormick3[57]: x[57] + u[57] - r[57] <= 1
 mccormick3[58]: x[58] + u[58] - r[58] <= 1
 mccormick3[59]: x[59] + u[59] - r[59] <= 1
 mccormick3[60]: x[60] + u[60] - r[60] <= 1
 mccormick3[61]: x[61] + u[61] - r[61] <= 1
 mccormick3[62]: x[62] + u[62] - r[62] <= 1
 mccormick3[63]: x[63] + u[63] - r[63] <= 1
 mccormick3[64]: x[64] + u[64] - r[64] <= 1
 mccormick3[65]: x[65] + u[65] - r[65] <= 1
 mccormick3[66]: x[66] + u[66] - r[66] <= 1
 mccormick3[67]: x[67] + u[67] - r[67] <= 1
 mccormick3[68]: x[68] + u[68] - r[68] <= 1
 mccormick3[69]: x[69] + u[69] - r[69] <= 1
 mccormick3[70]: x[70] + u[70] - r[70] <= 1
 mccormick3[71]: x[71] + u[71] - r[71] <= 1
 mccormick3[72]: x[72] + u[72] - r[72] <= 1
 mccormick3[73]: x[73] + u[73] - r[73] <= 1
 mccormick3[74]: x[74] + u[74] - r[74] <= 1
 mccormick3[75]: x[75] + u[75] - r[75] <= 1
 mccormick3[76]: x[76] + u[76] - r[76] <= 1
 mccormick3[77]: x[77] + u[77] - r[77] <= 1
 mccormick3[78]: x[78] + u[78] - r[78] <= 1
 mccormick3[79]: x[79] + u[79] - r[79] <= 1
 mccormick3[80]: x[80] + u[80] - r[80] <= 1
 mccormick3[81]: x[81] + u[81] - r[81] <= 1
 mccormick3[82]: x[82] + u[82] - r[82] <= 1
 mccormick3[83]: x[83] + u[83] - r[83] <= 1
 mccormick3[84]: x[84] + u[84] - r[84] <= 1
 mccormick3[85]: x[85] + u[85] - r[85] <= 1
 mccormick3[86]: x[86] + u[86] - r[86] <= 1
 mccormick3[87]: x[87] + u[87] - r[87] <= 1
 mccormick3[88]: x[88] + u[88] - r[88] <= 1
 mccormick3[89]: x[89] + u[89] - r[89] <= 1
 mccormick3[90]: x[90] + u[90] - r[90] <= 1
 mccormick3[91]: x[91] + u[91] - r[91] <= 1
 mccormick3[92]: x[92] + u[92] - r[92] <= 1
 mccormick3[93]: x[93] + u[93] - r[93] <= 1
 mccormick3[94]: x[94] + u[94] - r[94] <= 1
 mccormick3[95]: x[95] + u[95] - r[95] <= 1
 mccormick3[96]: x[96] + u[96] - r[96] <= 1
 mccormick3[97]: x[97] + u[97] - r[97] <= 1
 mccormick3[98]: x[98] + u[98] - r[98] <= 1
 mccormick3[99]: x[99] + u[99] - r[99] <= 1
Bounds
Binaries
 x[0] x[1] x[2] x[3] x[4] x[5] x[6] x[7] x[8] x[9] x[10] x[11] x[12] x[13]
 x[14] x[15] x[16] x[17] x[18] x[19] x[20] x[21] x[22] x[23] x[24] x[25]
 x[26] x[27] x[28] x[29] x[30] x[31] x[32] x[33] x[34] x[35] x[36] x[37]
 x[38] x[39] x[40] x[41] x[42] x[43] x[44] x[45] x[46] x[47] x[48] x[49]
 x[50] x[51] x[52] x[53] x[54] x[55] x[56] x[57] x[58] x[59] x[60] x[61]
 x[62] x[63] x[64] x[65] x[66] x[67] x[68] x[69] x[70] x[71] x[72] x[73]
 x[74] x[75] x[76] x[77] x[78] x[79] x[80] x[81] x[82] x[83] x[84] x[85]
 x[86] x[87] x[88] x[89] x[90] x[91] x[92] x[93] x[94] x[95] x[96] x[97]
 x[98] x[99] u[0] u[1] u[2] u[3] u[4] u[5] u[6] u[7] u[8] u[9] u[10] u[11]
 u[12] u[13] u[14] u[15] u[16] u[17] u[18] u[19] u[20] u[21] u[22] u[23]
 u[24] u[25] u[26] u[27] u[28] u[29] u[30] u[31] u[32] u[33] u[34] u[35]
 u[36] u[37] u[38] u[39] u[40] u[41] u[42] u[43] u[44] u[45] u[46] u[47]
 u[48] u[49] u[50] u[51] u[52] u[53] u[54] u[55] u[56] u[57] u[58] u[59]
 u[60] u[61] u[62] u[63] u[64] u[65] u[66] u[67] u[68] u[69] u[70] u[71]
 u[72] u[73] u[74] u[75] u[76] u[77] u[78] u[79] u[80] u[81] u[82] u[83]
 u[84] u[85] u[86] u[87] u[88] u[89] u[90] u[91] u[92] u[93] u[94] u[95]
 u[96] u[97] u[98] u[99] r[0] r[1] r[2] r[3] r[4] r[5] r[6] r[7] r[8] r[9]
 r[10] r[11] r[12] r[13] r[14] r[15] r[16] r[17] r[18] r[19] r[20] r[21]
 r[22] r[23] r[24] r[25] r[26] r[27] r[28] r[29] r[30] r[31] r[32] r[33]
 r[34] r[35] r[36] r[37] r[38] r[39] r[40] r[41] r[42] r[43] r[44] r[45]
 r[46] r[47] r[48] r[49] r[50] r[51] r[52] r[53] r[54] r[55] r[56] r[57]
 r[58] r[59] r[60] r[61] r[62] r[63] r[64] r[65] r[66] r[67] r[68] r[69]
 r[70] r[71] r[72] r[73] r[74] r[75] r[76] r[77] r[78] r[79] r[80] r[81]
 r[82] r[83] r[84] r[85] r[86] r[87] r[88] r[89] r[90] r[91] r[92] r[93]
 r[94] r[95] r[96] r[97] r[98] r[99]
End
